p wcnf 31 47 10
5 -1 0
5 -2 0
5 -3 0
5 -4 0
5 -5 0
5 -6 0
5 -7 0
5 -8 0
5 -9 0
5 -10 0
5 -11 0
5 -12 0
5 -13 0
5 -14 0
5 -15 0
5 -16 0
5 -17 0
5 -18 0
5 -19 0
5 -20 0
5 -21 0
5 -22 0
5 -23 0
5 -24 0
5 -25 0
5 -26 0
5 -27 0
5 -28 0
5 -29 0
5 -30 0
10 1 2 3 4 5 6 7 8 9 10 11 12 13 14 15 16 17 18 19 20 21 22 23 24 25 26 27 28 29 30 0
10 31 0
x 10 1 16 20 22 24 26 27 28 31 0
x 10 2 16 17 19 25 26 27 28 29 31 0
x 10 3 18 19 21 23 24 25 26 27 28 29 31 0
x 10 4 16 21 22 25 26 27 29 31 0
x 10 5 16 17 18 19 21 23 26 28 29 31 0
x 10 6 16 17 18 19 20 21 22 26 27 28 31 0
x 10 7 16 20 21 22 24 27 29 31 0
x 10 8 16 17 18 19 24 27 30 31 0
x 10 9 16 17 21 24 26 28 30 31 0
x 10 10 17 19 25 31 0
x 10 11 19 21 25 26 28 31 0
x 10 12 16 17 21 23 24 27 29 30 31 0
x 10 13 17 19 25 26 28 29 30 31 0
x 10 14 17 18 19 20 28 29 31 0
x 10 15 16 20 24 31 0
